(set-info :origin "driver benchmark extracted from Microsoft SDV")
(set-logic HORN)
(declare-fun Proc27 (Int Int Int Bool Int) Bool)
(declare-fun Proc34 (Int Int Int Bool Int) Bool)
(declare-fun Proc24 (Int Int Int Bool Int) Bool)
(declare-fun Proc37 (Int Int Int Bool) Bool)
(declare-fun Proc39 (Int Int Int Bool Int Int Int Int) Bool)
(declare-fun Proc1 (Int Int Int Bool Int) Bool)
(declare-fun Proc33 (Int Int Int Bool Int) Bool)
(declare-fun Proc9 (Int Int Int Bool) Bool)
(declare-fun Proc38 (Int Int Int Bool Int Int) Bool)
(declare-fun Proc21 (Int Int Int Bool Int Int) Bool)
(declare-fun Proc6 (Int Int Int Bool Int Int Int Int) Bool)
(declare-fun Proc2 (Int Int Int Bool Int Int Int) Bool)
(declare-fun Proc13 (Int Int Int Bool Int Int Int Int) Bool)
(declare-fun Proc22 (Int Int Int Bool Int Int Int Bool Int) Bool)
(declare-fun Proc23 (Int Int Int Bool Int) Bool)
(declare-fun Proc0 (Int Int Int Bool Int Int Int Int Int Int Int) Bool)
(declare-fun Proc41 (Int Int Int Bool Int Bool Int Int Int) Bool)
(declare-fun Proc30 (Int Int Int Bool Int) Bool)
(declare-fun Proc8 (Int Int Int Bool Int Int Int Int) Bool)
(declare-fun Proc12 (Int Int Int Bool Int Int) Bool)
(declare-fun Proc19 (Int Int Int Bool Int Int) Bool)
(declare-fun Proc11 (Int Int Int Bool Int Int Int) Bool)
(declare-fun Proc32 (Int Int Int Bool Int) Bool)
(declare-fun Proc25 (Int Int Int Bool Int) Bool)
(declare-fun Proc16 (Int Int Int Bool Int Int Int Int) Bool)
(declare-fun Proc4 (Int Int Int Bool Int Int Int) Bool)
(declare-fun Proc29 (Int Int Int Bool Int) Bool)
(declare-fun Proc17 (Int Int Int Bool) Bool)
(declare-fun Proc5 (Int Int Int Bool Int Int) Bool)
(declare-fun Proc20 (Int Int Int Bool Int) Bool)
(declare-fun Proc3 (Int Int Int Bool Int) Bool)
(declare-fun Proc15 (Int Int Int Bool Int Int Int) Bool)
(declare-fun Proc10 (Int Int Int Bool Int Int) Bool)
(declare-fun Proc36 (Int Int Int Bool Int) Bool)
(declare-fun Proc31 (Int Int Int Bool Int) Bool)
(declare-fun Proc35 (Int Int Int Bool Int) Bool)
(declare-fun Proc26 (Int Int Int Bool Int) Bool)
(declare-fun Proc18 (Int Int Int Bool) Bool)
(declare-fun Proc40 (Int Int Int Bool) Bool)
(declare-fun Proc7 (Int Int Int Bool Int) Bool)
(declare-fun Proc28 (Int Int Int Bool Int) Bool)
(declare-fun Proc14 (Int Int Int Bool Int Int Int) Bool)
(assert (forall ((A Int)
         (B Int)
         (C Int)
         (D Int)
         (E Int)
         (F Int)
         (G Int)
         (H Int)
         (I Int)
         (J Int)
         (K Int)
         (L Int)
         (M Int)
         (N Int)
         (O Bool))
  (let ((a!1 (or (not (and (= N M) (= L 0))) (not (and (= K L) (= J N)))))
        (a!2 (and (not (<= H (+ 1 I))) (not (<= H M)))))
  (let ((a!3 (or (not (= I M))
                 (not a!2)
                 (not (and (= N H) (= L I)))
                 (not (and (= K L) (= J N))))))
    (=> (not (or (not O) (and a!1 a!3))) (Proc0 M G F O E D C B A K J))))))
(assert (forall ((A Int) (B Int) (C Int) (D Int) (O Bool)) (=> O (Proc1 D C B O A))))
(assert (forall ((A Int) (B Int) (C Int) (D Int) (E Int) (F Int) (O Bool))
  (=> O (Proc2 F E D O C B A))))
(assert (forall ((A Int) (B Int) (C Int) (D Int) (O Bool)) (=> O (Proc3 D C B O A))))
(assert (forall ((A Int) (B Int) (C Int) (D Int) (E Int) (F Int) (O Bool))
  (=> O (Proc4 F E D O C B A))))
(assert (forall ((A Int)
         (B Int)
         (C Int)
         (D Int)
         (E Int)
         (F Int)
         (G Int)
         (H Int)
         (I Int)
         (J Int)
         (O Bool))
  (let ((a!1 (and (not (<= H (+ 1 J))) (not (<= H I)))))
  (let ((a!2 (or (not O)
                 (not (= J I))
                 (not a!1)
                 (not (Proc5 H G F O J E))
                 (not (and (= D H) (= C E))))))
    (=> (not a!2) (Proc6 I G F O B A D C))))))
(assert (forall ((A Int) (B Int) (C Int) (D Int) (E Int) (O Bool))
  (let ((a!1 (not (or (not O) (not (= E 1))))))
    (=> a!1 (Proc5 D C B O A E)))))
(assert (forall ((A Int) (B Int) (C Int) (D Int) (O Bool)) (=> false (Proc7 D C B O A))))
(assert (forall ((A Int)
         (B Int)
         (C Int)
         (D Int)
         (E Int)
         (F Int)
         (G Int)
         (H Int)
         (I Int)
         (J Int)
         (K Int)
         (L Int)
         (M Int)
         (O Bool))
  (let ((a!1 (or (not (= G 1))
                 (not (and (= F G) (= E H)))
                 (not (and (= D E) (= C F)))))
        (a!2 (or (= G 1)
                 (not (and (= F G) (= E H)))
                 (not (and (= D E) (= C F)))))
        (a!3 (and (not (<= A (+ 1 B))) (not (<= A K)))))
  (let ((a!4 (or (not (= L 259))
                 (not (= B K))
                 (not a!3)
                 (not (Proc7 A M J O B))
                 (not (and (= F J) (= E A)))
                 (not (and (= D E) (= C F)))))
        (a!6 (or (not (= M 0))
                 (not (= B K))
                 (not a!3)
                 (not (Proc7 A M J O B))
                 (not (and (= F J) (= E A)))
                 (not (and (= D E) (= C F))))))
  (let ((a!5 (and (or (= L 259) (not (Proc6 K M J O I L H G)) (and a!1 a!2))
                  a!4)))
  (let ((a!7 (or (not O) (and (or (= M 0) a!5) a!6))))
    (=> (not a!7) (Proc8 K M J O I L D C))))))))
(assert (forall ((A Int) (B Int) (C Int) (D Int) (E Int) (F Int) (O Bool))
  (let ((a!1 (not (or (not O)
                      (not (Proc9 F E D O))
                      (= C 0)
                      (not (Proc10 F E D O C 0))
                      (not (= B 0))))))
    (=> a!1 (Proc11 F E D O A C B)))))
(assert (forall ((A Int)
         (B Int)
         (C Int)
         (D Int)
         (E Int)
         (F Int)
         (G Int)
         (H Int)
         (I Int)
         (J Int)
         (K Int)
         (L Int)
         (M Int)
         (N Int)
         (O Bool)
         (P Int)
         (Q Int)
         (R Int)
         (S Int)
         (T Int)
         (U Int)
         (V Int)
         (W Int)
         (X Int)
         (Y Int)
         (Z Int)
         (A1 Int)
         (B1 Int)
         (C1 Int)
         (D1 Int)
         (E1 Int)
         (F1 Int)
         (G1 Int)
         (H1 Int)
         (I1 Int)
         (J1 Int)
         (K1 Int)
         (L1 Int)
         (M1 Int)
         (N1 Int)
         (O1 Int)
         (P1 Int)
         (Q1 Int)
         (R1 Int)
         (S1 Int))
  (let ((a!1 (and (not (<= Q1 (+ 1 S1))) (not (<= Q1 R1))))
        (a!2 (not (and (not (= L1 0)) (Proc13 Q1 N1 M1 O H1 16 G1 F1))))
        (a!3 (not (and (not (= L1 0)) (Proc14 F1 N1 M1 O E1 D1 C1))))
        (a!5 (or (not (= G1 0))
                 (not (= X (- 1073741670)))
                 (not (and (= B1 X) (= A1 F1)))
                 (= L1 0)
                 (not (Proc10 A1 N1 M1 O L1 0))
                 (not (and (= Z B1) (= Y A1)))))
        (a!6 (not (and (not (= L1 0)) (Proc13 Q1 N1 M1 O W 16 V U))))
        (a!7 (or (not (<= P1 I1))
                 (= L1 0)
                 (not (and (= B1 0) (= A1 U)))
                 (not (Proc10 A1 N1 M1 O L1 0))
                 (not (and (= Z B1) (= Y A1)))))
        (a!8 (or (<= P1 I1)
                 (= L1 0)
                 (not (and (= B1 0) (= A1 U)))
                 (not (Proc10 A1 N1 M1 O L1 0))
                 (not (and (= Z B1) (= Y A1)))))
        (a!9 (or (not (= V 0))
                 (not (= T (- 1073741670)))
                 (not (and (= B1 T) (= A1 U)))
                 (= L1 0)
                 (not (Proc10 A1 N1 M1 O L1 0))
                 (not (and (= Z B1) (= Y A1)))))
        (a!11 (or (not (<= P1 I1))
                  (= L1 0)
                  (not (and (= B1 0) (= A1 Q1)))
                  (not (Proc10 A1 N1 M1 O L1 0))
                  (not (and (= Z B1) (= Y A1)))))
        (a!12 (or (<= P1 I1)
                  (= L1 0)
                  (not (and (= B1 0) (= A1 Q1)))
                  (not (Proc10 A1 N1 M1 O L1 0))
                  (not (and (= Z B1) (= Y A1)))))
        (a!13 (or (not (= R (- 1073741808)))
                  (not (and (= B1 R) (= A1 Q1)))
                  (= L1 0)
                  (not (Proc10 A1 N1 M1 O L1 0))
                  (not (and (= Z B1) (= Y A1)))))
        (a!14 (or (not (<= P1 I1))
                  (= L1 0)
                  (not (and (= B1 0) (= A1 G)))
                  (not (Proc10 A1 N1 M1 O L1 0))
                  (not (and (= Z B1) (= Y A1)))))
        (a!15 (or (<= P1 I1)
                  (= L1 0)
                  (not (and (= B1 0) (= A1 G)))
                  (not (Proc10 A1 N1 M1 O L1 0))
                  (not (and (= Z B1) (= Y A1)))))
        (a!16 (or (not (= H 0))
                  (not (Proc3 G N1 M1 O J))
                  (not (Proc1 G N1 M1 O J))
                  (not (= F (- 1073741670)))
                  (not (and (= B1 F) (= A1 G)))
                  (= L1 0)
                  (not (Proc10 A1 N1 M1 O L1 0))
                  (not (and (= Z B1) (= Y A1)))))
        (a!18 (or (not (= J 0))
                  (not (= E (- 1073741670)))
                  (not (and (= B1 E) (= A1 I)))
                  (= L1 0)
                  (not (Proc10 A1 N1 M1 O L1 0))
                  (not (and (= Z B1) (= Y A1)))))
        (a!20 (or (not (= M 0))
                  (not (= D (- 1073741670)))
                  (not (Proc3 L N1 M1 O P))
                  (not (Proc1 L N1 M1 O P))
                  (not (and (= B1 D) (= A1 L)))
                  (= L1 0)
                  (not (Proc10 A1 N1 M1 O L1 0))
                  (not (and (= Z B1) (= Y A1)))))
        (a!22 (or (not (= P 0))
                  (not (= C (- 1073741670)))
                  (not (and (= B1 C) (= A1 N)))
                  (= L1 0)
                  (not (Proc10 A1 N1 M1 O L1 0))
                  (not (and (= Z B1) (= Y A1)))))
        (a!28 (or (not (= I1 0))
                  (not (= B (- 1073741811)))
                  (not (and (= B1 B) (= A1 Q1)))
                  (= L1 0)
                  (not (Proc10 A1 N1 M1 O L1 0))
                  (not (and (= Z B1) (= Y A1)))))
        (a!29 (or (not (= J1 0))
                  (not (= B (- 1073741811)))
                  (not (and (= B1 B) (= A1 Q1)))
                  (= L1 0)
                  (not (Proc10 A1 N1 M1 O L1 0))
                  (not (and (= Z B1) (= Y A1))))))
  (let ((a!4 (or (= G1 0)
                 (= L1 0)
                 a!3
                 (not (and (= B1 0) (= A1 C1)))
                 (not (Proc10 A1 N1 M1 O L1 0))
                 (not (and (= Z B1) (= Y A1)))))
        (a!10 (and (or (= V 0) (not (Proc15 U N1 M1 O V S1 I1)) (and a!7 a!8))
                   a!9))
        (a!17 (and (or (= H 0)
                       (not (Proc15 G N1 M1 O H S1 I1))
                       (not (Proc3 G N1 M1 O J))
                       (not (Proc1 G N1 M1 O J))
                       (and a!14 a!15))
                   a!16)))
  (let ((a!19 (and (or (= J 0)
                       (not (Proc2 I N1 M1 O J 1 1))
                       (not (Proc13 I N1 M1 O J 16 H G))
                       a!17)
                   a!18)))
  (let ((a!21 (and (or (= M 0)
                       (not (Proc3 L N1 M1 O P))
                       (not (Proc1 L N1 M1 O P))
                       (not (Proc0 L N1 M1 O K I1 0 1 0 J I))
                       a!19)
                   a!20)))
  (let ((a!23 (and (or (= P 0)
                       (not (Proc2 N N1 M1 O P 1 0))
                       (not (Proc13 N N1 M1 O P 16 M L))
                       a!21)
                   a!22)))
  (let ((a!24 (and a!13
                   (or (= K1 0)
                       (= L1 0)
                       (not (Proc4 Q1 N1 M1 O Q J1 1))
                       (not (Proc0 Q1 N1 M1 O Q J1 0 1 0 P N))
                       a!23))))
  (let ((a!25 (and (or (= L1 0)
                       (not (Proc15 Q1 N1 M1 O S S1 I1))
                       (and a!11 a!12))
                   (or (= K1 0) a!24))))
  (let ((a!26 (or (= K1 0) (and (or (= L1 0) a!6 a!10) (or (= K1 0) a!25)))))
  (let ((a!27 (or (= I1 0) (= K1 0) (and (or (= L1 0) a!2 (and a!4 a!5)) a!26))))
  (let ((a!30 (or (not O)
                  (not (= S1 R1))
                  (not a!1)
                  (not (= P1 (+ 1 O1)))
                  (not (Proc9 Q1 N1 M1 O))
                  (not (Proc12 Q1 N1 M1 O L1 K1))
                  (= K1 0)
                  (and (or (= J1 0) (and a!27 a!28)) a!29))))
    (=> (not a!30) (Proc16 R1 N1 M1 O A L1 Z Y))))))))))))))
(assert (forall ((A Int) (B Int) (C Int) (O Bool)) (=> O (Proc17 C B A O))))
(assert (forall ((A Int) (B Int) (C Int) (O Bool)) (=> O (Proc18 C B A O))))
(assert (forall ((A Int) (B Int) (C Int) (D Int) (E Int) (O Bool))
  (let ((a!1 (or (not O) (not (and (= E 0) (= D 0))))))
    (=> (not a!1) (Proc19 C B A O E D)))))
(assert (forall ((A Int)
         (B Int)
         (C Int)
         (D Int)
         (E Int)
         (F Int)
         (G Int)
         (H Int)
         (I Int)
         (J Int)
         (K Int)
         (L Int)
         (M Int)
         (N Int)
         (O Bool)
         (P Int)
         (T1 Bool)
         (U1 Bool)
         (V1 Bool))
  (let ((a!1 (not (and (not (<= P 0)) (Proc20 P N M V1 L))))
        (a!2 (not (and (= E G) (= D K) (= C H) (= T1 U1) (= B I)))))
  (let ((a!3 (or (= H 0) (not (and (= G F) (not U1))) a!2))
        (a!4 (or (not (and (= H 0) (= O V1))) (not (and (= G A) (= U1 O))) a!2)))
  (let ((a!5 (and (or (= H 1) (and a!3 a!4)) (or (not (= H 1)) (and a!3 a!4)))))
  (let ((a!6 (not (or (not V1)
                      a!1
                      (not (Proc19 L N M V1 K J))
                      (not (Proc18 L K J V1))
                      (not (Proc17 L K J V1))
                      (not (Proc21 L K J V1 I H))
                      a!5))))
    (=> a!6 (Proc22 P N M V1 E D C T1 B))))))))
(assert (forall ((A Int) (B Int) (C Int) (D Int) (O Bool))
  (let ((a!1 (not (or (not O) (not (= D 0))))))
    (=> a!1 (Proc23 C B A O D)))))
(assert (forall ((A Int) (B Int) (C Int) (D Int) (O Bool))
  (let ((a!1 (not (or (not O) (not (= D 0))))))
    (=> a!1 (Proc24 C B A O D)))))
(assert (forall ((A Int) (B Int) (C Int) (D Int) (O Bool))
  (let ((a!1 (not (or (not O) (not (= D 1))))))
    (=> a!1 (Proc25 C B A O D)))))
(assert (forall ((A Int) (B Int) (C Int) (D Int) (O Bool))
  (let ((a!1 (not (or (not O) (not (= D 0))))))
    (=> a!1 (Proc26 C B A O D)))))
(assert (forall ((A Int) (B Int) (C Int) (D Int) (O Bool))
  (let ((a!1 (not (or (not O) (not (= D 1))))))
    (=> a!1 (Proc27 C B A O D)))))
(assert (forall ((A Int) (B Int) (C Int) (D Int) (O Bool))
  (let ((a!1 (not (or (not O) (not (= D 0))))))
    (=> a!1 (Proc28 C B A O D)))))
(assert (forall ((A Int) (B Int) (C Int) (D Int) (O Bool))
  (let ((a!1 (not (or (not O) (not (= D 0))))))
    (=> a!1 (Proc29 C B A O D)))))
(assert (forall ((A Int) (B Int) (C Int) (D Int) (O Bool))
  (let ((a!1 (not (or (not O) (not (= D 0))))))
    (=> a!1 (Proc30 C B A O D)))))
(assert (forall ((A Int) (B Int) (C Int) (D Int) (O Bool))
  (let ((a!1 (not (or (not O) (not (= D 0))))))
    (=> a!1 (Proc31 C B A O D)))))
(assert (forall ((A Int) (B Int) (C Int) (D Int) (O Bool))
  (let ((a!1 (not (or (not O) (not (= D 0))))))
    (=> a!1 (Proc32 C B A O D)))))
(assert (forall ((A Int) (B Int) (C Int) (D Int) (O Bool))
  (let ((a!1 (not (or (not O) (not (= D 0))))))
    (=> a!1 (Proc33 C B A O D)))))
(assert (forall ((A Int) (B Int) (C Int) (D Int) (E Int) (O Bool))
  (let ((a!1 (or (not O) (not (= E (- 1073741823))) (not (= D E)))))
    (=> (not a!1) (Proc34 C B A O D)))))
(assert (forall ((A Int) (B Int) (C Int) (D Int) (E Int) (O Bool))
  (=> O (Proc10 E D C O B A))))
(assert (forall ((A Int) (B Int) (C Int) (D Int) (O Bool))
  (let ((a!1 (not (or (not O) (not (= D 0))))))
    (=> a!1 (Proc35 C B A O D)))))
(assert (forall ((A Int) (B Int) (C Int) (D Int) (E Int) (F Int) (O Bool))
  (let ((a!1 (not (or (not O) (= F 0) (not (= E D))))))
    (=> a!1 (Proc12 C B A O F E)))))
(assert (forall ((A Int)
         (B Int)
         (C Int)
         (D Int)
         (E Int)
         (F Int)
         (G Int)
         (H Int)
         (O Bool))
  (let ((a!1 (and (not (<= F (+ 1 H))) (not (<= F G)))))
  (let ((a!2 (or (not O) (not (= H G)) (not a!1) (not (and (= E H) (= D F))))))
    (=> (not a!2) (Proc14 G C B O A E D))))))
(assert (forall ((A Int)
         (B Int)
         (C Int)
         (D Int)
         (E Int)
         (F Int)
         (G Int)
         (H Int)
         (I Int)
         (J Int)
         (K Int)
         (O Bool))
  (let ((a!1 (or (not (and (= K J) (= I 0))) (not (and (= H I) (= G K)))))
        (a!2 (and (not (<= E (+ 1 F))) (not (<= E J)))))
  (let ((a!3 (or (not (= F J))
                 (not a!2)
                 (not (and (= K E) (= I F)))
                 (not (and (= H I) (= G K))))))
    (=> (not (or (not O) (and a!1 a!3))) (Proc13 J D C O B A H G))))))
(assert (forall ((A Int) (B Int) (C Int) (D Int) (E Int) (F Int) (O Bool))
  (=> O (Proc15 F E D O C B A))))
(assert (forall ((A Int)
         (B Int)
         (C Int)
         (D Int)
         (E Int)
         (F Int)
         (G Int)
         (H Int)
         (I Int)
         (J Int)
         (K Int)
         (L Int)
         (M Int)
         (N Int)
         (O Bool)
         (P Int)
         (Q Int)
         (R Int)
         (S Int)
         (T Int)
         (U Int)
         (V Int)
         (W Int)
         (X Int)
         (Y Int)
         (Z Int)
         (A1 Int)
         (B1 Int)
         (C1 Int)
         (D1 Int)
         (E1 Int))
  (let ((a!1 (or (= A1 0)
                 (not (Proc11 D1 C1 B1 O Z E1 Y))
                 (not (and (= X Y) (= W D1)))
                 (not (Proc38 W C1 B1 O X E1))
                 (= E1 0)
                 (not (and (= V X) (= U W)))))
        (a!2 (or (= A1 0)
                 (not (Proc11 D1 C1 B1 O Z E1 T))
                 (not (and (= X T) (= W D1)))
                 (not (Proc38 W C1 B1 O X E1))
                 (= E1 0)
                 (not (and (= V X) (= U W)))))
        (a!3 (or (= A1 0)
                 (not (Proc34 D1 C1 B1 O S))
                 (not (and (= X S) (= W D1)))
                 (not (Proc38 W C1 B1 O X E1))
                 (= E1 0)
                 (not (and (= V X) (= U W)))))
        (a!4 (or (= A1 0)
                 (not (Proc34 D1 C1 B1 O R))
                 (not (and (= X R) (= W D1)))
                 (not (Proc38 W C1 B1 O X E1))
                 (= E1 0)
                 (not (and (= V X) (= U W)))))
        (a!5 (or (= A1 0)
                 (not (Proc34 D1 C1 B1 O Q))
                 (not (and (= X Q) (= W D1)))
                 (not (Proc38 W C1 B1 O X E1))
                 (= E1 0)
                 (not (and (= V X) (= U W)))))
        (a!6 (or (= A1 0)
                 (not (Proc34 D1 C1 B1 O P))
                 (not (and (= X P) (= W D1)))
                 (not (Proc38 W C1 B1 O X E1))
                 (= E1 0)
                 (not (and (= V X) (= U W)))))
        (a!7 (or (= A1 0)
                 (not (Proc34 D1 C1 B1 O N))
                 (not (and (= X N) (= W D1)))
                 (not (Proc38 W C1 B1 O X E1))
                 (= E1 0)
                 (not (and (= V X) (= U W)))))
        (a!8 (or (not (Proc34 D1 C1 B1 O M))
                 (not (and (= X M) (= W D1)))
                 (not (Proc38 W C1 B1 O X E1))
                 (= E1 0)
                 (not (and (= V X) (= U W)))))
        (a!9 (or (= A1 0)
                 (not (Proc16 D1 C1 B1 O Z E1 L K))
                 (not (and (= X L) (= W K)))
                 (not (Proc38 W C1 B1 O X E1))
                 (= E1 0)
                 (not (and (= V X) (= U W)))))
        (a!10 (or (= A1 0)
                  (not (Proc34 D1 C1 B1 O J))
                  (not (and (= X J) (= W D1)))
                  (not (Proc38 W C1 B1 O X E1))
                  (= E1 0)
                  (not (and (= V X) (= U W)))))
        (a!11 (or (= A1 0)
                  (not (Proc34 D1 C1 B1 O I))
                  (not (and (= X I) (= W D1)))
                  (not (Proc38 W C1 B1 O X E1))
                  (= E1 0)
                  (not (and (= V X) (= U W)))))
        (a!12 (or (not (Proc34 D1 C1 B1 O H))
                  (not (and (= X H) (= W D1)))
                  (not (Proc38 W C1 B1 O X E1))
                  (= E1 0)
                  (not (and (= V X) (= U W)))))
        (a!13 (or (= A1 0)
                  (not (Proc34 D1 C1 B1 O G))
                  (not (and (= X G) (= W D1)))
                  (not (Proc38 W C1 B1 O X E1))
                  (= E1 0)
                  (not (and (= V X) (= U W)))))
        (a!14 (or (= A1 0)
                  (not (Proc34 D1 C1 B1 O F))
                  (not (and (= X F) (= W D1)))
                  (not (Proc38 W C1 B1 O X E1))
                  (= E1 0)
                  (not (and (= V X) (= U W)))))
        (a!15 (or (= A1 0)
                  (not (Proc34 D1 C1 B1 O E))
                  (not (and (= X E) (= W D1)))
                  (not (Proc38 W C1 B1 O X E1))
                  (= E1 0)
                  (not (and (= V X) (= U W)))))
        (a!16 (or (not (Proc34 D1 C1 B1 O D))
                  (not (and (= X D) (= W D1)))
                  (not (Proc38 W C1 B1 O X E1))
                  (= E1 0)
                  (not (and (= V X) (= U W)))))
        (a!17 (or (= A1 0)
                  (not (Proc34 D1 C1 B1 O C))
                  (not (and (= X C) (= W D1)))
                  (not (Proc38 W C1 B1 O X E1))
                  (= E1 0)
                  (not (and (= V X) (= U W)))))
        (a!18 (or (not (= B 1))
                  (= B 0)
                  (= A1 0)
                  (not (Proc34 D1 C1 B1 O C))
                  (not (and (= X C) (= W D1)))
                  (not (Proc38 W C1 B1 O X E1))
                  (= E1 0)
                  (not (and (= V X) (= U W))))))
  (let ((a!19 (and (or (= A1 0) (and a!17 a!18))
                   (or (not (= A 1)) (= A 0) (= A1 0) (and a!17 a!18)))))
  (let ((a!20 (or (not O)
                  (= E1 0)
                  (not (Proc36 D1 C1 B1 O E1))
                  (= A1 0)
                  (not (Proc37 D1 C1 B1 O))
                  (and a!1
                       a!2
                       a!3
                       a!4
                       a!5
                       a!6
                       a!7
                       a!8
                       a!9
                       a!10
                       a!11
                       a!12
                       a!13
                       a!14
                       a!15
                       a!16
                       (or (= A1 0) a!19)))))
    (=> (not a!20) (Proc39 D1 C1 B1 O Z E1 V U)))))))
(assert (forall ((A Int) (B Int) (C Int) (D Int) (O Bool))
  (=> (not (or (not O) (= D 0))) (Proc36 C B A O D))))
(assert (forall ((A Int) (B Int) (C Int) (O Bool)) (=> O (Proc9 C B A O))))
(assert (forall ((A Int)
         (B Int)
         (C Int)
         (D Int)
         (E Int)
         (F Int)
         (G Int)
         (H Int)
         (I Int)
         (J Int)
         (K Int)
         (L Int)
         (M Int)
         (N Int)
         (O Bool)
         (P Int)
         (Q Int)
         (R Int)
         (S Int)
         (T Int)
         (U Int)
         (V Int)
         (W Int)
         (X Int)
         (Y Int)
         (Z Int)
         (A1 Int)
         (B1 Int))
  (let ((a!1 (or (not (and (= L Z) (= K B1))) (not (and (= J K) (= I L)))))
        (a!2 (or (not (and (= L Z) (= K E))) (not (and (= J K) (= I L)))))
        (a!3 (and (not (<= C (+ 1 D))) (not (<= C E))))
        (a!4 (or (not (= A 1))
                 (not (and (= L A) (= K B)))
                 (not (and (= J K) (= I L)))))
        (a!5 (or (= A 1)
                 (not (and (= L A) (= K B)))
                 (not (and (= J K) (= I L)))))
        (a!7 (or (not (= Y 0))
                 (not (and (= L Z) (= K B1)))
                 (not (and (= J K) (= I L))))))
  (let ((a!6 (and a!2
                  (or (not (= D E))
                      (not a!3)
                      (not (Proc8 C A1 Z O D F B A))
                      (and a!4 a!5)))))
  (let ((a!8 (and a!1
                  (or (= Y 0)
                      (not (Proc40 B1 A1 Z O))
                      (not (Proc39 B1 A1 Z O H G F E))
                      a!6)
                  a!7)))
  (let ((a!9 (not (or (not O)
                      (not (Proc25 B1 A1 Z O Y))
                      (not (Proc32 B1 A1 Z O X))
                      (not (Proc26 B1 A1 Z O W))
                      (not (Proc31 B1 A1 Z O V))
                      (not (Proc24 B1 A1 Z O U))
                      (not (Proc28 B1 A1 Z O T))
                      (not (Proc35 B1 A1 Z O S))
                      (not (Proc33 B1 A1 Z O R))
                      (not (Proc23 B1 A1 Z O Q))
                      (not (Proc29 B1 A1 Z O P))
                      (not (Proc30 B1 A1 Z O N))
                      (not (Proc27 B1 A1 Z O M))
                      a!8))))
    (=> a!9 (Proc21 B1 A1 Z O J I))))))))
(assert (forall ((A Int) (B Int) (C Int) (O Bool)) (=> O (Proc37 C B A O))))
(assert (forall ((A Int) (B Int) (C Int) (D Int) (E Int) (O Bool))
  (=> O (Proc38 E D C O B A))))
(assert (forall ((A Int) (B Int) (C Int) (O Bool)) (=> O (Proc40 C B A O))))
(assert (forall ((A Int)
         (B Int)
         (C Int)
         (D Int)
         (E Int)
         (F Int)
         (G Int)
         (H Int)
         (I Int)
         (J Int)
         (K Int)
         (L Int)
         (M Int)
         (N Int)
         (O Bool)
         (P Int)
         (Q Int)
         (R Int)
         (S Int)
         (T Int)
         (U Int)
         (V Int)
         (W Int)
         (X Int)
         (Y Int)
         (Z Int)
         (A1 Int)
         (B1 Int)
         (C1 Int)
         (D1 Int)
         (E1 Int)
         (F1 Int)
         (G1 Int)
         (H1 Int)
         (I1 Int)
         (J1 Int)
         (K1 Int)
         (L1 Int)
         (M1 Int)
         (N1 Int)
         (O1 Int)
         (P1 Int)
         (Q1 Int)
         (R1 Int)
         (S1 Int)
         (W1 Int)
         (X1 Int)
         (Y1 Int)
         (Z1 Int)
         (A2 Int)
         (B2 Int)
         (C2 Int)
         (D2 Int))
  (let ((a!1 (and (= D2 C2)
                  (not (<= B2 (+ 240 D2)))
                  (not (<= B2 C2))
                  (= A2 B2)
                  (not (<= Z1 (+ 4 A2)))
                  (not (<= Z1 B2))
                  (= Y1 Z1)
                  (not (<= X1 (+ 332 Y1)))))
        (a!2 (and (not (<= X1 Z1))
                  (= W1 X1)
                  (not (<= S1 (+ 4 W1)))
                  (not (<= S1 X1))
                  (= R1 S1)
                  (not (<= Q1 (+ 536 R1)))
                  (not (<= Q1 S1))
                  (= P1 Q1)
                  (not (<= O1 (+ 240 P1)))
                  (not (<= O1 Q1))
                  (= N1 O1)
                  (not (<= M1 (+ 240 N1)))
                  (not (<= M1 O1))
                  (= L1 M1)
                  (not (<= K1 (+ 240 L1)))
                  (not (<= K1 M1))
                  (= J1 K1)
                  (not (<= I1 (+ 4 J1)))
                  (not (<= I1 K1))
                  (= H1 I1)
                  (not (<= G1 (+ 536 H1)))
                  (not (<= G1 I1))
                  (= F1 G1)
                  (not (<= E1 (+ 332 F1)))
                  (not (<= E1 G1))
                  (= D1 E1)
                  (not (<= C1 (+ 240 D1)))
                  (not (<= C1 E1))
                  (= B1 C1)
                  (not (<= A1 (+ 240 B1)))
                  (not (<= A1 C1))
                  (= Z A1)
                  (not (<= Y (+ 332 Z)))
                  (not (<= Y A1))
                  (= X Y)
                  (not (<= W (+ 4 X)))
                  (not (<= W Y))
                  (= V W)
                  (not (<= U (+ 240 V)))
                  (not (<= U W))
                  (= T U)
                  (not (<= S (+ 240 T)))
                  (not (<= S U))
                  (= R S)
                  (not (<= Q (+ 240 R)))
                  (not (<= Q S))
                  (= P Q)
                  (not (<= N (+ 240 P)))
                  (not (<= N Q))
                  (= M N)
                  (not (<= L (+ 240 M)))
                  (not (<= L N))
                  (= K L)
                  (not (<= J (+ 40 K)))
                  (not (<= J L))
                  (= I J)
                  (not (<= H (+ 332 I)))
                  (not (<= H J))
                  (= G H)
                  (not (<= F (+ 4 G)))
                  (not (<= F H))
                  (= E F)
                  (not (<= D (+ 40 E)))
                  (not (<= D F)))))
  (let ((a!3 (not (or (not O) (not a!1) (not a!2) (not (= C D))))))
    (=> a!3 (Proc20 C2 B A O C))))))
(assert (forall ((A Int)
         (B Int)
         (C Int)
         (D Int)
         (E Int)
         (F Int)
         (G Int)
         (H Int)
         (I Int)
         (J Int)
         (K Int)
         (O Bool)
         (T1 Bool)
         (U1 Bool))
  (let ((a!1 (or (not U1) (not (and (Proc22 K J I true H G F T1 E) (not T1))))))
    (=> (not a!1) (Proc41 K J I U1 D O C B A)))))
(assert (let ((a!1 (exists ((V0 Int)
                    (V1 Int)
                    (V2 Int)
                    (V3 Bool)
                    (V4 Int)
                    (V5 Bool)
                    (V6 Int)
                    (V7 Int)
                    (V8 Int))
             (not (=> (and (Proc41 V0 V1 V2 V3 V4 V5 V6 V7 V8) (not false))
                      false)))))
  (not a!1)))

(check-sat)
